c Random generated cnf formula, satisfiable: false
p cnf 10 50
4 -3 -10 0
1 -8 2 0
6 -2 -9 0
9 8 4 0
-8 -7 -6 0
4 -2 -1 0
-5 -8 -1 0
-3 -6 -1 0
-8 -10 -7 0
10 8 -1 0
5 9 -8 0
1 4 3 0
8 10 -4 0
-4 5 -2 0
3 1 8 0
-6 4 -7 0
1 -2 -7 0
4 -3 2 0
2 -4 -1 0
-5 -1 9 0
3 -6 -5 0
4 -10 6 0
-2 -5 3 0
-3 -10 -7 0
-9 -4 -6 0
1 -9 5 0
9 8 5 0
-3 -6 -1 0
-6 -8 -7 0
1 7 -9 0
-1 9 -7 0
-10 5 9 0
3 -9 8 0
-5 9 10 0
5 3 -2 0
4 -6 -9 0
3 -5 -8 0
-5 4 -10 0
-1 -9 -8 0
-5 -9 3 0
-5 -10 1 0
-5 -7 -9 0
-6 -10 2 0
2 -4 8 0
-9 7 -1 0
7 1 5 0
-8 -5 9 0
8 -6 -3 0
-6 -3 -10 0
-7 -5 -4 0
